(set-logic ALL)
(declare-fun var0 () String)
(assert (str.in_re var0 (re.++ (re.+ (re.* (str.to_re "000"))) (re.++ (re.* (re.* (str.to_re "1"))) (re.++ (re.union (re.+ (str.to_re "22")) (re.+ (str.to_re "333"))) (re.++ (re.+ (re.+ (str.to_re "44"))) (re.++ (re.+ (re.+ (str.to_re "555"))) (re.++ (re.* (re.union (str.to_re "66") (str.to_re "7"))) (re.++ (re.* (re.union (str.to_re "88") (str.to_re "999"))) (re.++ (re.* (re.union (str.to_re "a") (str.to_re "b"))) (re.++ (re.+ (re.union (str.to_re "cc") (str.to_re "d"))) (re.++ (re.+ (re.union (str.to_re "e") (str.to_re "f"))) (re.++ (re.union (re.* (str.to_re "ggg")) (re.* (str.to_re "hh"))) (re.++ (re.+ (re.union (str.to_re "i") (str.to_re "j"))) (re.++ (re.union (re.* (str.to_re "kk")) (re.* (str.to_re "ll"))) (re.++ (re.+ (re.+ (str.to_re "mm"))) (re.++ (re.+ (re.+ (str.to_re "nn"))) (re.++ (re.+ (re.+ (str.to_re "o"))) (re.++ (re.union (re.+ (str.to_re "p")) (re.+ (str.to_re "qq"))) (re.++ (re.union (re.union (str.to_re "r") (str.to_re "ss")) (re.union (str.to_re "t") (str.to_re "uuu"))) (re.++ (re.union (re.union (str.to_re "vv") (str.to_re "ww")) (re.union (str.to_re "xxx") (str.to_re "yy"))) (re.++ (re.union (re.+ (str.to_re "z")) (re.+ (str.to_re "AA"))) (re.++ (re.union (re.union (str.to_re "BB") (str.to_re "CC")) (re.union (str.to_re "DD") (str.to_re "E"))) (re.++ (re.+ (re.union (str.to_re "F") (str.to_re "G"))) (re.++ (re.* (re.+ (str.to_re "HH"))) (re.++ (re.union (re.* (str.to_re "I")) (re.* (str.to_re "JJJ"))) (re.++ (re.union (re.+ (str.to_re "KKK")) (re.+ (str.to_re "LL"))) (re.++ (re.+ (re.+ (str.to_re "MMM"))) (re.++ (re.+ (re.union (str.to_re "NN") (str.to_re "OO"))) (re.++ (re.+ (re.+ (str.to_re "P"))) (re.++ (re.+ (re.union (str.to_re "QQ") (str.to_re "RRR"))) (re.++ (re.union (re.+ (str.to_re "SS")) (re.+ (str.to_re "TTT"))) (re.++ (re.+ (re.union (str.to_re "UUU") (str.to_re "VVV"))) (re.++ (re.* (re.union (str.to_re "WWW") (str.to_re "X"))) (re.++ (re.* (re.union (str.to_re "YYY") (str.to_re "ZZZ"))) (re.++ (re.* (re.+ (str.to_re "!!"))) (re.++ (re.* (re.* (str.to_re """"))) (re.++ (re.union (re.+ (str.to_re "##")) (re.+ (str.to_re "$$"))) (re.++ (re.+ (re.+ (str.to_re "%"))) (re.++ (re.+ (re.union (str.to_re "&") (str.to_re "'''"))) (re.++ (re.union (re.+ (str.to_re "(((")) (re.+ (str.to_re ")))"))) (re.++ (re.+ (re.* (str.to_re "*"))) (re.++ (re.* (re.union (str.to_re "++") (str.to_re ",,,"))) (re.++ (re.union (re.+ (str.to_re "--")) (re.+ (str.to_re "."))) (re.++ (re.union (re.+ (str.to_re "///")) (re.+ (str.to_re ":::"))) (re.++ (re.union (re.+ (str.to_re ";;")) (re.+ (str.to_re "<<"))) (re.++ (re.+ (re.+ (str.to_re "=="))) (re.++ (re.* (re.+ (str.to_re ">"))) (re.++ (re.union (re.+ (str.to_re "?")) (re.+ (str.to_re "@@"))) (re.++ (re.union (re.+ (str.to_re "[[")) (re.+ (str.to_re "\\\\\\"))) (re.++ (re.* (re.+ (str.to_re "]]]"))) (re.++ (re.+ (re.union (str.to_re "^") (str.to_re "___"))) (re.++ (re.+ (re.* (str.to_re "``"))) (re.++ (re.* (re.* (str.to_re "{"))) (re.union (re.+ (str.to_re "|||")) (re.+ (str.to_re "}}}")))))))))))))))))))))))))))))))))))))))))))))))))))))))))
(check-sat)